
******************************************************************************
This program contains Ipopt, a library for large-scale nonlinear optimization.
 Ipopt is released as open source code under the Eclipse Public License (EPL).
         For more information visit http://projects.coin-or.org/Ipopt
******************************************************************************

This is Ipopt version 3.12.6, running with linear solver ma57.

Number of nonzeros in equality constraint Jacobian...:        0
Number of nonzeros in inequality constraint Jacobian.:     6000
Number of nonzeros in Lagrangian Hessian.............:     2002

Total number of variables............................:     2002
                     variables with only lower bounds:        0
                variables with lower and upper bounds:        0
                     variables with only upper bounds:        0
Total number of equality constraints.................:        0
Total number of inequality constraints...............:     2000
        inequality constraints with only lower bounds:     2000
   inequality constraints with lower and upper bounds:        0
        inequality constraints with only upper bounds:        0

iter    objective    inf_pr   inf_du lg(mu)  ||d||  lg(rg) alpha_du alpha_pr  ls
   0  5.0525497e+02 0.00e+00 1.05e+00  -1.0 0.00e+00    -  0.00e+00 0.00e+00   0
   1  7.3093648e+01 3.58e-03 3.87e+00  -1.0 1.00e+00    -  1.00e+00 6.32e-01f  1
   2  1.8473979e+01 1.53e-03 1.46e+01  -1.0 3.70e-01    -  1.00e+00 5.72e-01h  1
   3  8.7938624e+00 6.43e-04 3.62e+01  -1.0 2.47e-01    -  1.00e+00 5.78e-01h  1
   4  7.9740958e+00 2.72e-04 8.71e+01  -1.0 2.26e-01    -  1.00e+00 5.76e-01h  1
   5  9.0942454e+00 1.14e-04 2.07e+02  -1.0 2.19e-01    -  1.00e+00 5.81e-01h  1
   6  1.1175203e+01 5.08e-05 5.51e+02  -1.0 2.20e-01    -  1.00e+00 5.55e-01h  1
   7  1.4117119e+01 2.49e-05 1.65e+03  -1.0 2.34e-01    -  1.00e+00 5.14e-01h  1
   8  1.8406215e+01 1.42e-05 6.19e+03  -1.0 2.92e-01    -  1.00e+00 4.33e-01h  1
   9  3.7481377e+01 7.02e-06 1.46e+04  -1.0 4.67e-01    -  1.00e+00 5.11e-01h  1
iter    objective    inf_pr   inf_du lg(mu)  ||d||  lg(rg) alpha_du alpha_pr  ls
  10  1.0185523e+02 3.02e-06 2.39e+04  -1.0 6.51e-01    -  1.00e+00 5.63e-01h  1
  11  2.0360643e+02 6.36e-07 1.23e+04  -1.0 5.12e-01    -  1.00e+00 7.66e-01h  1
  12  2.1496928e+02 0.00e+00 1.68e+04  -1.0 1.73e-01    -  1.00e+00 2.50e-01f  3
  13  2.5464044e+02 0.00e+00 1.00e-06  -1.0 1.30e-01    -  1.00e+00 1.00e+00h  1
  14  1.7114303e+02 0.00e+00 3.21e-11  -5.7 6.79e-01    -  1.00e+00 1.00e+00f  1
  15  1.4782457e+02 0.00e+00 4.77e+03  -5.7 2.89e-01    -  5.38e-01 1.00e+00f  1
  16  1.4762090e+02 0.00e+00 4.74e+03  -5.7 1.18e-01    -  1.45e-02 4.37e-02f  1
  17  1.4724931e+02 0.00e+00 4.59e+03  -5.7 1.15e-01    -  4.05e-02 8.33e-02f  1
  18  1.4722904e+02 0.00e+00 7.71e+02  -5.7 1.11e-01    -  7.94e-01 4.85e-03f  1
  19  1.4704962e+02 0.00e+00 7.16e+02  -5.7 1.54e-01    -  1.82e-01 3.77e-02f  1
iter    objective    inf_pr   inf_du lg(mu)  ||d||  lg(rg) alpha_du alpha_pr  ls
  20  1.4671952e+02 0.00e+00 1.09e+03  -5.7 1.55e-01    -  8.32e-01 7.16e-02f  1
  21  1.4569387e+02 0.00e+00 8.55e+02  -5.7 1.72e-01    -  2.79e-01 2.33e-01f  1
  22  1.4385707e+02 0.00e+00 4.89e+02  -5.7 1.41e-01    -  1.00e+00 5.82e-01f  1
  23  1.4314191e+02 0.00e+00 1.84e+02  -5.7 8.52e-02    -  1.38e-01 5.61e-01f  1
  24  1.4261142e+02 0.00e+00 4.95e+00  -5.7 4.59e-02    -  9.23e-01 1.00e+00f  1
  25  1.4260615e+02 0.00e+00 1.52e+00  -5.7 1.62e-02    -  9.05e-01 1.00e+00f  1
  26  1.4260554e+02 0.00e+00 3.78e-01  -5.7 6.64e-03    -  9.26e-01 1.00e+00f  1
  27  1.4260535e+02 0.00e+00 2.91e-11  -5.7 3.18e-03    -  1.00e+00 1.00e+00f  1
  28  1.4260223e+02 0.00e+00 8.59e-01  -8.6 1.95e-03    -  6.84e-01 9.99e-01f  1
  29  1.4260213e+02 0.00e+00 7.36e-01  -8.6 7.94e-04    -  2.48e-01 1.00e+00f  1
iter    objective    inf_pr   inf_du lg(mu)  ||d||  lg(rg) alpha_du alpha_pr  ls
  30  1.4260210e+02 0.00e+00 3.89e-01  -8.6 2.75e-04    -  4.72e-01 1.00e+00f  1
  31  1.4260209e+02 0.00e+00 2.18e-01  -8.6 1.33e-04    -  4.33e-01 1.00e+00f  1
  32  1.4260208e+02 0.00e+00 1.08e-01  -8.6 8.86e-05    -  4.99e-01 9.46e-01f  1
  33  1.4260208e+02 0.00e+00 2.02e-02  -8.6 2.23e-04    -  8.10e-01 5.60e-01f  1
  34  1.4260208e+02 0.00e+00 2.45e-11  -8.6 9.37e-05    -  1.00e+00 1.00e+00f  1

Number of Iterations....: 34

                                   (scaled)                 (unscaled)
Objective...............:   1.4260208054219592e+02    1.4260208054219592e+02
Dual infeasibility......:   2.4455215630325711e-11    2.4455215630325711e-11
Constraint violation....:   0.0000000000000000e+00    0.0000000000000000e+00
Complementarity.........:   1.5680766741587375e-08    1.5680766741587375e-08
Overall NLP error.......:   5.9431512815169048e-11    1.5680766741587375e-08


Number of objective function evaluations             = 37
Number of objective gradient evaluations             = 35
Number of equality constraint evaluations            = 0
Number of inequality constraint evaluations          = 37
Number of equality constraint Jacobian evaluations   = 0
Number of inequality constraint Jacobian evaluations = 35
Number of Lagrangian Hessian evaluations             = 34
Total CPU secs in IPOPT (w/o function evaluations)   =      0.103
Total CPU secs in NLP function evaluations           =      0.020

EXIT: Optimal Solution Found.

************************ CUTEst statistics ************************


 Package used            :  IPOPT
 Problem                 :  LISWET8   
 # variables             =            2002
 # constraints           =            2000
 # objective functions   =        0.7300000E+02
 # objective gradients   =        0.3600000E+02
 # objective Hessians    =        0.3500000E+02
 # Hessian-vector prdct  =        0.0000000E+00
 # constraints functions =        0.7400000E+02
 # constraints gradients =        0.3700000E+02
 # constraints Hessians  =        0.3500000E+02
 Exit code               =               0
 Final f                 =   0.1426021E+03
 Set up time             =            0.04 seconds
 Solve time              =            0.32 seconds


******************************************************************

System Time =       0.0920000002 s.
